NAME: random-18-8485
TYPE: TSP
COMMENT: size=18 seed=8485
DIMENSION: 38
EDGE_WEIGHT_TYPE: EUC_2D
NODE_COORD_SECTION
+0 395 713
-0 395 713
+1 610 441
-1 687 110
+2 994 155
-2 62 696
+3 270 799
-3 604 337
+4 577 510
-4 709 971
+5 281 896
-5 806 727
+6 787 415
-6 355 274
+7 497 472
-7 617 461
+8 98 401
-8 335 110
+9 366 819
-9 839 132
+10 883 528
-10 848 336
+11 609 773
-11 307 753
+12 579 951
-12 44 914
+13 381 36
-13 924 86
+14 324 508
-14 92 44
+15 445 850
-15 405 858
+16 448 128
-16 919 337
+17 53 130
-17 74 212
+18 878 114
-18 907 610
PRECEDENCE_SECTION
+0 -0
+1 -1
+2 -2
+3 -3
+4 -4
+5 -5
+6 -6
+7 -7
+8 -8
+9 -9
+10 -10
+11 -11
+12 -12
+13 -13
+14 -14
+15 -15
+16 -16
+17 -17
+18 -18
EOF
